100 3 100
85 80 22 95 96 65 15 65 61 81 5 30 99 73 9 36 7 53 69 83 23 93 72 74 82 70 78 2 72 60 29 57 41 4 52 89 69 19 7 82 1 12 12 52 37 73 41 44 26 10 28 2 3 52 76 37 23 6 39 95 18 21 5 11 77 9 53 46 29 60 80 82 24 44 86 61 17 27 5 43 37 85 97 92 38 73 29 61 31 21 8 50 94 13 13 71 23 66 69 4 
